sat

(objectives
 ((bvadd PriceProv8 (bvadd PriceProv7 (bvadd PriceProv6 (bvadd PriceProv5 (bvadd PriceProv4 (bvadd PriceProv3 (bvadd PriceProv1 PriceProv2))))))) (_ bv1424 32))
)
;; statistics
(
 :cnf-variables 1479
 :cnf-literals 5440
 :cnf-clauses 2375
 :sat-checks 12
 :sat-restarts 44
 :sat-decisions 69944
 :sat-random-decisions 31
 :sat-propagations 110926744
 :sat-theory-propagations 0
 :sat-watched-clauses-visited 138156803
 :sat-binary-watched-clauses-visited 77325688
 :sat-conflicts 24078
 :sat-theory-conflicts 0
 :theory-necessary-interface-equalities 0
 :theory-extra-interface-equalities 0
 :euf-total-calls 75340
 :euf-complete-calls 16
 :euf-conflicts 0
 :euf-implications 0
 :euf-explanations 0
 :euf-egraph-nodes-created 35278
 :euf-egraph-nodes-deleted 31958
 :euf-num-asserted-equalities 1172892
 :euf-num-asserted-inequalities 687266
 :euf-num-merges 2531952
 :euf-num-merges-undone 2531952
 :euf-num-atoms-retold 7424
 :la-total-calls 75340
 :la-complete-calls 16
 :la-conflicts 0
 :la-implications 0
 :la-explanations 0
 :la-num-equalities-split 0
 :la-num-tableau-rows 0
 :la-num-tableau-variables 0
 :bv-total-calls 75340
 :bv-complete-calls 16
 :bv-conflicts 0
 :bv-implications 0
 :bv-explanations 0
 :fp-total-calls 75340
 :fp-complete-calls 16
 :fp-conflicts 0
 :fp-implications 0
 :fp-explanations 0
 :arr-total-calls 75340
 :arr-complete-calls 16
 :arr-conflicts 0
 :arr-implications 0
 :arr-explanations 0
 :arr-write-lemmas-added 0
 :arr-row-lemmas-added 0
 :arr-ext-lemmas-added 0
 :arr-const-lemmas-added 0
 :na-total-calls 75340
 :na-complete-calls 16
 :na-conflicts 0
 :na-implications 0
 :na-explanations 0
 :na-num_nonlinear_multiplications 0
 :na-num_axiom_checks 0
 :na-num_zero_lemmas 0
 :na-num_sign_lemmas 0
 :na-num_neutral_lemmas 0
 :na-num_proportionality_lemmas 0
 :na-num_bound_lemmas 0
 :na-num_tangent_lemmas 0
 :na-num_monotonicity_lemmas 0
 :na-num_sat_checks 0
 :na-axiom_check_time 0.000
 :na-sat_check_time 0.000
 :time-seconds 22.042
 :memory-mb 69.396
)
